\ LP format - for model browsing. Use MPS format to capture full model detail.
Minimize
  C
Subject To
 fistflightcard_1: delta_1,0 + delta_1,1 + delta_1,2 + delta_1,3
   + delta_1,4 <= 1
 firstflighdef_1,0: - x_1,0,2,4 - x_1,0,5,4 - x_1,0,4,2 - x_1,0,4,5
   - x_1,0,2,5 - x_1,0,5,2 + delta_1,0 >= 0
 firstflighdef_1,1: x_1,0,2,4 + x_1,0,5,4 + x_1,0,4,2 + x_1,0,4,5
   + x_1,0,2,5 + x_1,0,5,2 - x_1,1,2,4 - x_1,1,5,4 - x_1,1,4,2 - x_1,1,4,5
   - x_1,1,2,5 - x_1,1,5,2 + delta_1,1 >= 0
 firstflighdef_1,2: x_1,0,2,4 + x_1,0,5,4 + x_1,0,4,2 + x_1,0,4,5
   + x_1,0,2,5 + x_1,0,5,2 + x_1,1,2,4 + x_1,1,5,4 + x_1,1,4,2 + x_1,1,4,5
   + x_1,1,2,5 + x_1,1,5,2 - x_1,2,2,4 - x_1,2,5,4 - x_1,2,4,2 - x_1,2,4,5
   - x_1,2,2,5 - x_1,2,5,2 + delta_1,2 >= 0
 firstflighdef_1,3: x_1,0,2,4 + x_1,0,5,4 + x_1,0,4,2 + x_1,0,4,5
   + x_1,0,2,5 + x_1,0,5,2 + x_1,1,2,4 + x_1,1,5,4 + x_1,1,4,2 + x_1,1,4,5
   + x_1,1,2,5 + x_1,1,5,2 + x_1,2,2,4 + x_1,2,5,4 + x_1,2,4,2 + x_1,2,4,5
   + x_1,2,2,5 + x_1,2,5,2 - x_1,3,2,4 - x_1,3,5,4 - x_1,3,4,2 - x_1,3,4,5
   - x_1,3,2,5 - x_1,3,5,2 + delta_1,3 >= 0
 firstflighdef_1,4: x_1,0,2,4 + x_1,0,5,4 + x_1,0,4,2 + x_1,0,4,5
   + x_1,0,2,5 + x_1,0,5,2 + x_1,1,2,4 + x_1,1,5,4 + x_1,1,4,2 + x_1,1,4,5
   + x_1,1,2,5 + x_1,1,5,2 + x_1,2,2,4 + x_1,2,5,4 + x_1,2,4,2 + x_1,2,4,5
   + x_1,2,2,5 + x_1,2,5,2 + x_1,3,2,4 + x_1,3,5,4 + x_1,3,4,2 + x_1,3,4,5
   + x_1,3,2,5 + x_1,3,5,2 - x_1,4,2,4 - x_1,4,5,4 - x_1,4,4,2 - x_1,4,4,5
   - x_1,4,2,5 - x_1,4,5,2 + delta_1,4 >= 0
 trajectorystart_1,0: - x_1,0,2,4 - x_1,0,2,5 + delta_1,0 <= 0
 trajectorystart_1,1: - x_1,1,2,4 - x_1,1,2,5 + delta_1,1 <= 0
 trajectorystart_1,2: - x_1,2,2,4 - x_1,2,2,5 + delta_1,2 <= 0
 trajectorystart_1,3: - x_1,3,2,4 - x_1,3,2,5 + delta_1,3 <= 0
 trajectorystart_1,4: - x_1,4,2,4 - x_1,4,2,5 + delta_1,4 <= 0
 flightpredecessor_1,0,2-4: x_1,0,2,4 - delta_1,0 <= 0
 flightpredecessor_1,0,5-4: x_1,0,5,4 - delta_1,0 <= 0
 flightpredecessor_1,0,4-2: x_1,0,4,2 - delta_1,0 <= 0
 flightpredecessor_1,0,4-5: x_1,0,4,5 - delta_1,0 <= 0
 flightpredecessor_1,0,2-5: x_1,0,2,5 - delta_1,0 <= 0
 flightpredecessor_1,0,5-2: x_1,0,5,2 - delta_1,0 <= 0
 flightpredecessor_1,1,2-4: - x_1,0,4,2 - x_1,0,5,2 + x_1,1,2,4 - delta_1,1
   <= 0
 flightpredecessor_1,1,5-4: - x_1,0,4,5 - x_1,0,2,5 + x_1,1,5,4 - delta_1,1
   <= 0
 flightpredecessor_1,1,4-2: - x_1,0,2,4 - x_1,0,5,4 + x_1,1,4,2 - delta_1,1
   <= 0
 flightpredecessor_1,1,4-5: - x_1,0,2,4 - x_1,0,5,4 + x_1,1,4,5 - delta_1,1
   <= 0
 flightpredecessor_1,1,2-5: - x_1,0,4,2 - x_1,0,5,2 + x_1,1,2,5 - delta_1,1
   <= 0
 flightpredecessor_1,1,5-2: - x_1,0,4,5 - x_1,0,2,5 + x_1,1,5,2 - delta_1,1
   <= 0
 flightpredecessor_1,2,2-4: - x_1,0,4,2 - x_1,0,5,2 - x_1,1,4,2 - x_1,1,5,2
   + x_1,2,2,4 - delta_1,2 <= 0
 flightpredecessor_1,2,5-4: - x_1,0,4,5 - x_1,0,2,5 - x_1,1,4,5 - x_1,1,2,5
   + x_1,2,5,4 - delta_1,2 <= 0
 flightpredecessor_1,2,4-2: - x_1,0,2,4 - x_1,0,5,4 - x_1,1,2,4 - x_1,1,5,4
   + x_1,2,4,2 - delta_1,2 <= 0
 flightpredecessor_1,2,4-5: - x_1,0,2,4 - x_1,0,5,4 - x_1,1,2,4 - x_1,1,5,4
   + x_1,2,4,5 - delta_1,2 <= 0
 flightpredecessor_1,2,2-5: - x_1,0,4,2 - x_1,0,5,2 - x_1,1,4,2 - x_1,1,5,2
   + x_1,2,2,5 - delta_1,2 <= 0
 flightpredecessor_1,2,5-2: - x_1,0,4,5 - x_1,0,2,5 - x_1,1,4,5 - x_1,1,2,5
   + x_1,2,5,2 - delta_1,2 <= 0
 flightpredecessor_1,3,2-4: - x_1,0,4,2 - x_1,0,5,2 - x_1,1,4,2 - x_1,1,5,2
   - x_1,2,4,2 - x_1,2,5,2 + x_1,3,2,4 - delta_1,3 <= 0
 flightpredecessor_1,3,5-4: - x_1,0,4,5 - x_1,0,2,5 - x_1,1,4,5 - x_1,1,2,5
   - x_1,2,4,5 - x_1,2,2,5 + x_1,3,5,4 - delta_1,3 <= 0
 flightpredecessor_1,3,4-2: - x_1,0,2,4 - x_1,0,5,4 - x_1,1,2,4 - x_1,1,5,4
   - x_1,2,2,4 - x_1,2,5,4 + x_1,3,4,2 - delta_1,3 <= 0
 flightpredecessor_1,3,4-5: - x_1,0,2,4 - x_1,0,5,4 - x_1,1,2,4 - x_1,1,5,4
   - x_1,2,2,4 - x_1,2,5,4 + x_1,3,4,5 - delta_1,3 <= 0
 flightpredecessor_1,3,2-5: - x_1,0,4,2 - x_1,0,5,2 - x_1,1,4,2 - x_1,1,5,2
   - x_1,2,4,2 - x_1,2,5,2 + x_1,3,2,5 - delta_1,3 <= 0
 flightpredecessor_1,3,5-2: - x_1,0,4,5 - x_1,0,2,5 - x_1,1,4,5 - x_1,1,2,5
   - x_1,2,4,5 - x_1,2,2,5 + x_1,3,5,2 - delta_1,3 <= 0
 flightpredecessor_1,4,2-4: - x_1,0,4,2 - x_1,0,5,2 - x_1,1,4,2 - x_1,1,5,2
   - x_1,2,4,2 - x_1,2,5,2 - x_1,3,4,2 - x_1,3,5,2 + x_1,4,2,4 - delta_1,4
   <= 0
 flightpredecessor_1,4,5-4: - x_1,0,4,5 - x_1,0,2,5 - x_1,1,4,5 - x_1,1,2,5
   - x_1,2,4,5 - x_1,2,2,5 - x_1,3,4,5 - x_1,3,2,5 + x_1,4,5,4 - delta_1,4
   <= 0
 flightpredecessor_1,4,4-2: - x_1,0,2,4 - x_1,0,5,4 - x_1,1,2,4 - x_1,1,5,4
   - x_1,2,2,4 - x_1,2,5,4 - x_1,3,2,4 - x_1,3,5,4 + x_1,4,4,2 - delta_1,4
   <= 0
 flightpredecessor_1,4,4-5: - x_1,0,2,4 - x_1,0,5,4 - x_1,1,2,4 - x_1,1,5,4
   - x_1,2,2,4 - x_1,2,5,4 - x_1,3,2,4 - x_1,3,5,4 + x_1,4,4,5 - delta_1,4
   <= 0
 flightpredecessor_1,4,2-5: - x_1,0,4,2 - x_1,0,5,2 - x_1,1,4,2 - x_1,1,5,2
   - x_1,2,4,2 - x_1,2,5,2 - x_1,3,4,2 - x_1,3,5,2 + x_1,4,2,5 - delta_1,4
   <= 0
 flightpredecessor_1,4,5-2: - x_1,0,4,5 - x_1,0,2,5 - x_1,1,4,5 - x_1,1,2,5
   - x_1,2,4,5 - x_1,2,2,5 - x_1,3,4,5 - x_1,3,2,5 + x_1,4,5,2 - delta_1,4
   <= 0
 droneflow2a_1,2,4: >= -1
 droneflow2b_1,2,4: <= 0
 droneflow2a_1,2,0: - x_1,0,2,4 + x_1,0,4,2 - x_1,0,2,5 + x_1,0,5,2 >= -1
 droneflow2b_1,2,0: - x_1,0,2,4 + x_1,0,4,2 - x_1,0,2,5 + x_1,0,5,2 <= 0
 droneflow2a_1,2,1: - x_1,0,2,4 + x_1,0,4,2 - x_1,0,2,5 + x_1,0,5,2
   - x_1,1,2,4 + x_1,1,4,2 - x_1,1,2,5 + x_1,1,5,2 >= -1
 droneflow2b_1,2,1: - x_1,0,2,4 + x_1,0,4,2 - x_1,0,2,5 + x_1,0,5,2
   - x_1,1,2,4 + x_1,1,4,2 - x_1,1,2,5 + x_1,1,5,2 <= 0
 droneflow2a_1,2,2: - x_1,0,2,4 + x_1,0,4,2 - x_1,0,2,5 + x_1,0,5,2
   - x_1,1,2,4 + x_1,1,4,2 - x_1,1,2,5 + x_1,1,5,2 - x_1,2,2,4 + x_1,2,4,2
   - x_1,2,2,5 + x_1,2,5,2 >= -1
 droneflow2b_1,2,2: - x_1,0,2,4 + x_1,0,4,2 - x_1,0,2,5 + x_1,0,5,2
   - x_1,1,2,4 + x_1,1,4,2 - x_1,1,2,5 + x_1,1,5,2 - x_1,2,2,4 + x_1,2,4,2
   - x_1,2,2,5 + x_1,2,5,2 <= 0
 droneflow2a_1,2,3: - x_1,0,2,4 + x_1,0,4,2 - x_1,0,2,5 + x_1,0,5,2
   - x_1,1,2,4 + x_1,1,4,2 - x_1,1,2,5 + x_1,1,5,2 - x_1,2,2,4 + x_1,2,4,2
   - x_1,2,2,5 + x_1,2,5,2 - x_1,3,2,4 + x_1,3,4,2 - x_1,3,2,5 + x_1,3,5,2
   >= -1
 droneflow2b_1,2,3: - x_1,0,2,4 + x_1,0,4,2 - x_1,0,2,5 + x_1,0,5,2
   - x_1,1,2,4 + x_1,1,4,2 - x_1,1,2,5 + x_1,1,5,2 - x_1,2,2,4 + x_1,2,4,2
   - x_1,2,2,5 + x_1,2,5,2 - x_1,3,2,4 + x_1,3,4,2 - x_1,3,2,5 + x_1,3,5,2
   <= 0
 droneflow2a_1,4,3: >= 0
 droneflow2b_1,4,3: <= 1
 droneflow2a_1,4,0: x_1,0,2,4 + x_1,0,5,4 - x_1,0,4,2 - x_1,0,4,5 >= 0
 droneflow2b_1,4,0: x_1,0,2,4 + x_1,0,5,4 - x_1,0,4,2 - x_1,0,4,5 <= 1
 droneflow2a_1,4,1: x_1,0,2,4 + x_1,0,5,4 - x_1,0,4,2 - x_1,0,4,5
   + x_1,1,2,4 + x_1,1,5,4 - x_1,1,4,2 - x_1,1,4,5 >= 0
 droneflow2b_1,4,1: x_1,0,2,4 + x_1,0,5,4 - x_1,0,4,2 - x_1,0,4,5
   + x_1,1,2,4 + x_1,1,5,4 - x_1,1,4,2 - x_1,1,4,5 <= 1
 droneflow2a_1,4,2: x_1,0,2,4 + x_1,0,5,4 - x_1,0,4,2 - x_1,0,4,5
   + x_1,1,2,4 + x_1,1,5,4 - x_1,1,4,2 - x_1,1,4,5 + x_1,2,2,4 + x_1,2,5,4
   - x_1,2,4,2 - x_1,2,4,5 >= 0
 droneflow2b_1,4,2: x_1,0,2,4 + x_1,0,5,4 - x_1,0,4,2 - x_1,0,4,5
   + x_1,1,2,4 + x_1,1,5,4 - x_1,1,4,2 - x_1,1,4,5 + x_1,2,2,4 + x_1,2,5,4
   - x_1,2,4,2 - x_1,2,4,5 <= 1
 droneflow2a_1,4,3: x_1,0,2,4 + x_1,0,5,4 - x_1,0,4,2 - x_1,0,4,5
   + x_1,1,2,4 + x_1,1,5,4 - x_1,1,4,2 - x_1,1,4,5 + x_1,2,2,4 + x_1,2,5,4
   - x_1,2,4,2 - x_1,2,4,5 + x_1,3,2,4 + x_1,3,5,4 - x_1,3,4,2 - x_1,3,4,5
   >= 0
 droneflow2b_1,4,3: x_1,0,2,4 + x_1,0,5,4 - x_1,0,4,2 - x_1,0,4,5
   + x_1,1,2,4 + x_1,1,5,4 - x_1,1,4,2 - x_1,1,4,5 + x_1,2,2,4 + x_1,2,5,4
   - x_1,2,4,2 - x_1,2,4,5 + x_1,3,2,4 + x_1,3,5,4 - x_1,3,4,2 - x_1,3,4,5
   <= 1
 droneflow2a_1,5,3: >= 0
 droneflow2b_1,5,3: <= 1
 droneflow2a_1,5,0: - x_1,0,5,4 + x_1,0,4,5 + x_1,0,2,5 - x_1,0,5,2 >= 0
 droneflow2b_1,5,0: - x_1,0,5,4 + x_1,0,4,5 + x_1,0,2,5 - x_1,0,5,2 <= 1
 droneflow2a_1,5,1: - x_1,0,5,4 + x_1,0,4,5 + x_1,0,2,5 - x_1,0,5,2
   - x_1,1,5,4 + x_1,1,4,5 + x_1,1,2,5 - x_1,1,5,2 >= 0
 droneflow2b_1,5,1: - x_1,0,5,4 + x_1,0,4,5 + x_1,0,2,5 - x_1,0,5,2
   - x_1,1,5,4 + x_1,1,4,5 + x_1,1,2,5 - x_1,1,5,2 <= 1
 droneflow2a_1,5,2: - x_1,0,5,4 + x_1,0,4,5 + x_1,0,2,5 - x_1,0,5,2
   - x_1,1,5,4 + x_1,1,4,5 + x_1,1,2,5 - x_1,1,5,2 - x_1,2,5,4 + x_1,2,4,5
   + x_1,2,2,5 - x_1,2,5,2 >= 0
 droneflow2b_1,5,2: - x_1,0,5,4 + x_1,0,4,5 + x_1,0,2,5 - x_1,0,5,2
   - x_1,1,5,4 + x_1,1,4,5 + x_1,1,2,5 - x_1,1,5,2 - x_1,2,5,4 + x_1,2,4,5
   + x_1,2,2,5 - x_1,2,5,2 <= 1
 droneflow2a_1,5,3: - x_1,0,5,4 + x_1,0,4,5 + x_1,0,2,5 - x_1,0,5,2
   - x_1,1,5,4 + x_1,1,4,5 + x_1,1,2,5 - x_1,1,5,2 - x_1,2,5,4 + x_1,2,4,5
   + x_1,2,2,5 - x_1,2,5,2 - x_1,3,5,4 + x_1,3,4,5 + x_1,3,2,5 - x_1,3,5,2
   >= 0
 droneflow2b_1,5,3: - x_1,0,5,4 + x_1,0,4,5 + x_1,0,2,5 - x_1,0,5,2
   - x_1,1,5,4 + x_1,1,4,5 + x_1,1,2,5 - x_1,1,5,2 - x_1,2,5,4 + x_1,2,4,5
   + x_1,2,2,5 - x_1,2,5,2 - x_1,3,5,4 + x_1,3,4,5 + x_1,3,2,5 - x_1,3,5,2
   <= 1
 deliveryflow1_1,0: f_1,0,2,4 + f_1,0,5,4 + f_1,0,4,2 + f_1,0,4,5
   + f_1,0,2,5 + f_1,0,5,2 <= 1
 deliveryflow1_1,1: f_1,1,2,4 + f_1,1,5,4 + f_1,1,4,2 + f_1,1,4,5
   + f_1,1,2,5 + f_1,1,5,2 <= 1
 deliveryflow3_1,2: - f_1,0,2,4 + f_1,0,4,2 - f_1,0,2,5 + f_1,0,5,2
   - f_1,1,2,4 + f_1,1,4,2 - f_1,1,2,5 + f_1,1,5,2 = 0
 deliveryflow3_1,4: f_1,0,2,4 + f_1,0,5,4 - f_1,0,4,2 - f_1,0,4,5
   + f_1,1,2,4 + f_1,1,5,4 - f_1,1,4,2 - f_1,1,4,5 = -1
 deliveryflow3_1,5: - f_1,0,5,4 + f_1,0,4,5 + f_1,0,2,5 - f_1,0,5,2
   - f_1,1,5,4 + f_1,1,4,5 + f_1,1,2,5 - f_1,1,5,2 = 1
 deliveryflows_1,1,2-4: - f_1,0,4,2 - f_1,0,5,2 + f_1,1,2,4 <= 0
 deliveryflows_1,1,5-4: - f_1,0,4,5 - f_1,0,2,5 + f_1,1,5,4 <= 0
 deliveryflows_1,1,4-2: - f_1,0,2,4 - f_1,0,5,4 + f_1,1,4,2 <= 0
 deliveryflows_1,1,4-5: - f_1,0,2,4 - f_1,0,5,4 + f_1,1,4,5 <= 0
 deliveryflows_1,1,2-5: - f_1,0,4,2 - f_1,0,5,2 + f_1,1,2,5 <= 0
 deliveryflows_1,1,5-2: - f_1,0,4,5 - f_1,0,2,5 + f_1,1,5,2 <= 0
 ycard2_1,0: y_1,0,1,0 + y_1,0,1,1 <= 1
 ycard2_1,1: y_1,1,1,0 + y_1,1,1,1 <= 1
 ycard2_1,2: y_1,2,1,0 + y_1,2,1,1 <= 1
 ycard2_1,3: y_1,3,1,0 + y_1,3,1,1 <= 1
 ycard2_1,4: y_1,4,1,0 + y_1,4,1,1 <= 1
 ycard1_1,0: y_1,0,1,0 + y_1,1,1,0 + y_1,2,1,0 + y_1,3,1,0 + y_1,4,1,0
   <= 1
 ycard1_1,1: y_1,0,1,1 + y_1,1,1,1 + y_1,2,1,1 + y_1,3,1,1 + y_1,4,1,1
   <= 1
 linkvars1_1,0: f_1,0,2,4 + f_1,0,5,4 + f_1,0,4,2 + f_1,0,4,5 + f_1,0,2,5
   + f_1,0,5,2 - y_1,0,1,0 - y_1,1,1,0 - y_1,2,1,0 - y_1,3,1,0 - y_1,4,1,0
   = 0
 linkvars1_1,1: f_1,1,2,4 + f_1,1,5,4 + f_1,1,4,2 + f_1,1,4,5 + f_1,1,2,5
   + f_1,1,5,2 - y_1,0,1,1 - y_1,1,1,1 - y_1,2,1,1 - y_1,3,1,1 - y_1,4,1,1
   = 0
 linkvars2_1,0,1,0,2-4: - x_1,0,2,4 + f_1,0,2,4 + y_1,0,1,0 <= 1
 linkvars2_1,0,1,0,5-4: - x_1,0,5,4 + f_1,0,5,4 + y_1,0,1,0 <= 1
 linkvars2_1,0,1,0,4-2: - x_1,0,4,2 + f_1,0,4,2 + y_1,0,1,0 <= 1
 linkvars2_1,0,1,0,4-5: - x_1,0,4,5 + f_1,0,4,5 + y_1,0,1,0 <= 1
 linkvars2_1,0,1,0,2-5: - x_1,0,2,5 + f_1,0,2,5 + y_1,0,1,0 <= 1
 linkvars2_1,0,1,0,5-2: - x_1,0,5,2 + f_1,0,5,2 + y_1,0,1,0 <= 1
 linkvars2_1,0,1,1,2-4: - x_1,0,2,4 + f_1,1,2,4 + y_1,0,1,1 <= 1
 linkvars2_1,0,1,1,5-4: - x_1,0,5,4 + f_1,1,5,4 + y_1,0,1,1 <= 1
 linkvars2_1,0,1,1,4-2: - x_1,0,4,2 + f_1,1,4,2 + y_1,0,1,1 <= 1
 linkvars2_1,0,1,1,4-5: - x_1,0,4,5 + f_1,1,4,5 + y_1,0,1,1 <= 1
 linkvars2_1,0,1,1,2-5: - x_1,0,2,5 + f_1,1,2,5 + y_1,0,1,1 <= 1
 linkvars2_1,0,1,1,5-2: - x_1,0,5,2 + f_1,1,5,2 + y_1,0,1,1 <= 1
 linkvars2_1,1,1,0,2-4: - x_1,1,2,4 + f_1,0,2,4 + y_1,1,1,0 <= 1
 linkvars2_1,1,1,0,5-4: - x_1,1,5,4 + f_1,0,5,4 + y_1,1,1,0 <= 1
 linkvars2_1,1,1,0,4-2: - x_1,1,4,2 + f_1,0,4,2 + y_1,1,1,0 <= 1
 linkvars2_1,1,1,0,4-5: - x_1,1,4,5 + f_1,0,4,5 + y_1,1,1,0 <= 1
 linkvars2_1,1,1,0,2-5: - x_1,1,2,5 + f_1,0,2,5 + y_1,1,1,0 <= 1
 linkvars2_1,1,1,0,5-2: - x_1,1,5,2 + f_1,0,5,2 + y_1,1,1,0 <= 1
 linkvars2_1,1,1,1,2-4: - x_1,1,2,4 + f_1,1,2,4 + y_1,1,1,1 <= 1
 linkvars2_1,1,1,1,5-4: - x_1,1,5,4 + f_1,1,5,4 + y_1,1,1,1 <= 1
 linkvars2_1,1,1,1,4-2: - x_1,1,4,2 + f_1,1,4,2 + y_1,1,1,1 <= 1
 linkvars2_1,1,1,1,4-5: - x_1,1,4,5 + f_1,1,4,5 + y_1,1,1,1 <= 1
 linkvars2_1,1,1,1,2-5: - x_1,1,2,5 + f_1,1,2,5 + y_1,1,1,1 <= 1
 linkvars2_1,1,1,1,5-2: - x_1,1,5,2 + f_1,1,5,2 + y_1,1,1,1 <= 1
 linkvars2_1,2,1,0,2-4: - x_1,2,2,4 + f_1,0,2,4 + y_1,2,1,0 <= 1
 linkvars2_1,2,1,0,5-4: - x_1,2,5,4 + f_1,0,5,4 + y_1,2,1,0 <= 1
 linkvars2_1,2,1,0,4-2: - x_1,2,4,2 + f_1,0,4,2 + y_1,2,1,0 <= 1
 linkvars2_1,2,1,0,4-5: - x_1,2,4,5 + f_1,0,4,5 + y_1,2,1,0 <= 1
 linkvars2_1,2,1,0,2-5: - x_1,2,2,5 + f_1,0,2,5 + y_1,2,1,0 <= 1
 linkvars2_1,2,1,0,5-2: - x_1,2,5,2 + f_1,0,5,2 + y_1,2,1,0 <= 1
 linkvars2_1,2,1,1,2-4: - x_1,2,2,4 + f_1,1,2,4 + y_1,2,1,1 <= 1
 linkvars2_1,2,1,1,5-4: - x_1,2,5,4 + f_1,1,5,4 + y_1,2,1,1 <= 1
 linkvars2_1,2,1,1,4-2: - x_1,2,4,2 + f_1,1,4,2 + y_1,2,1,1 <= 1
 linkvars2_1,2,1,1,4-5: - x_1,2,4,5 + f_1,1,4,5 + y_1,2,1,1 <= 1
 linkvars2_1,2,1,1,2-5: - x_1,2,2,5 + f_1,1,2,5 + y_1,2,1,1 <= 1
 linkvars2_1,2,1,1,5-2: - x_1,2,5,2 + f_1,1,5,2 + y_1,2,1,1 <= 1
 linkvars2_1,3,1,0,2-4: - x_1,3,2,4 + f_1,0,2,4 + y_1,3,1,0 <= 1
 linkvars2_1,3,1,0,5-4: - x_1,3,5,4 + f_1,0,5,4 + y_1,3,1,0 <= 1
 linkvars2_1,3,1,0,4-2: - x_1,3,4,2 + f_1,0,4,2 + y_1,3,1,0 <= 1
 linkvars2_1,3,1,0,4-5: - x_1,3,4,5 + f_1,0,4,5 + y_1,3,1,0 <= 1
 linkvars2_1,3,1,0,2-5: - x_1,3,2,5 + f_1,0,2,5 + y_1,3,1,0 <= 1
 linkvars2_1,3,1,0,5-2: - x_1,3,5,2 + f_1,0,5,2 + y_1,3,1,0 <= 1
 linkvars2_1,3,1,1,2-4: - x_1,3,2,4 + f_1,1,2,4 + y_1,3,1,1 <= 1
 linkvars2_1,3,1,1,5-4: - x_1,3,5,4 + f_1,1,5,4 + y_1,3,1,1 <= 1
 linkvars2_1,3,1,1,4-2: - x_1,3,4,2 + f_1,1,4,2 + y_1,3,1,1 <= 1
 linkvars2_1,3,1,1,4-5: - x_1,3,4,5 + f_1,1,4,5 + y_1,3,1,1 <= 1
 linkvars2_1,3,1,1,2-5: - x_1,3,2,5 + f_1,1,2,5 + y_1,3,1,1 <= 1
 linkvars2_1,3,1,1,5-2: - x_1,3,5,2 + f_1,1,5,2 + y_1,3,1,1 <= 1
 linkvars2_1,4,1,0,2-4: - x_1,4,2,4 + f_1,0,2,4 + y_1,4,1,0 <= 1
 linkvars2_1,4,1,0,5-4: - x_1,4,5,4 + f_1,0,5,4 + y_1,4,1,0 <= 1
 linkvars2_1,4,1,0,4-2: - x_1,4,4,2 + f_1,0,4,2 + y_1,4,1,0 <= 1
 linkvars2_1,4,1,0,4-5: - x_1,4,4,5 + f_1,0,4,5 + y_1,4,1,0 <= 1
 linkvars2_1,4,1,0,2-5: - x_1,4,2,5 + f_1,0,2,5 + y_1,4,1,0 <= 1
 linkvars2_1,4,1,0,5-2: - x_1,4,5,2 + f_1,0,5,2 + y_1,4,1,0 <= 1
 linkvars2_1,4,1,1,2-4: - x_1,4,2,4 + f_1,1,2,4 + y_1,4,1,1 <= 1
 linkvars2_1,4,1,1,5-4: - x_1,4,5,4 + f_1,1,5,4 + y_1,4,1,1 <= 1
 linkvars2_1,4,1,1,4-2: - x_1,4,4,2 + f_1,1,4,2 + y_1,4,1,1 <= 1
 linkvars2_1,4,1,1,4-5: - x_1,4,4,5 + f_1,1,4,5 + y_1,4,1,1 <= 1
 linkvars2_1,4,1,1,2-5: - x_1,4,2,5 + f_1,1,2,5 + y_1,4,1,1 <= 1
 linkvars2_1,4,1,1,5-2: - x_1,4,5,2 + f_1,1,5,2 + y_1,4,1,1 <= 1
 swapnotmove_1,0,: x_1,0,2,4 + x_1,0,5,4 + x_1,0,4,2 + x_1,0,4,5
   + x_1,0,2,5 + x_1,0,5,2 + gamma_1,0 <= 1
 swapnotmove_1,1,: x_1,1,2,4 + x_1,1,5,4 + x_1,1,4,2 + x_1,1,4,5
   + x_1,1,2,5 + x_1,1,5,2 + gamma_1,1 <= 1
 swapnotmove_1,2,: x_1,2,2,4 + x_1,2,5,4 + x_1,2,4,2 + x_1,2,4,5
   + x_1,2,2,5 + x_1,2,5,2 + gamma_1,2 <= 1
 swapnotmove_1,3,: x_1,3,2,4 + x_1,3,5,4 + x_1,3,4,2 + x_1,3,4,5
   + x_1,3,2,5 + x_1,3,5,2 + gamma_1,3 <= 1
 swapnotmove_1,4,: x_1,4,2,4 + x_1,4,5,4 + x_1,4,4,2 + x_1,4,4,5
   + x_1,4,2,5 + x_1,4,5,2 + gamma_1,4 <= 1
 batterysocswap_1,0: - gamma_1,0 + B_1,0 >= 0
 batterysocswap_1,1: - gamma_1,1 + B_1,1 >= 0
 batterysocswap_1,2: - gamma_1,2 + B_1,2 >= 0
 batterysocswap_1,3: - gamma_1,3 + B_1,3 >= 0
 batterysocswap_1,4: - gamma_1,4 + B_1,4 >= 0
 batteryconsumption1_1,0: 0.4507996391020319 x_1,0,2,4
   + 0.3615143479030934 x_1,0,5,4 + 0.4507996391020319 x_1,0,4,2
   + 0.3615143479030934 x_1,0,4,5 + 0.8089773461211116 x_1,0,2,5
   + 0.8089773461211116 x_1,0,5,2 - 100 gamma_1,0 + B_1,0 <= 1
 batteryconsumption1_1,1: 0.4507996391020319 x_1,1,2,4
   + 0.3615143479030934 x_1,1,5,4 + 0.4507996391020319 x_1,1,4,2
   + 0.3615143479030934 x_1,1,4,5 + 0.8089773461211116 x_1,1,2,5
   + 0.8089773461211116 x_1,1,5,2 - 100 gamma_1,1 - B_1,0 + B_1,1 <= 0
 batteryconsumption1_1,2: 0.4507996391020319 x_1,2,2,4
   + 0.3615143479030934 x_1,2,5,4 + 0.4507996391020319 x_1,2,4,2
   + 0.3615143479030934 x_1,2,4,5 + 0.8089773461211116 x_1,2,2,5
   + 0.8089773461211116 x_1,2,5,2 - 100 gamma_1,2 - B_1,1 + B_1,2 <= 0
 batteryconsumption1_1,3: 0.4507996391020319 x_1,3,2,4
   + 0.3615143479030934 x_1,3,5,4 + 0.4507996391020319 x_1,3,4,2
   + 0.3615143479030934 x_1,3,4,5 + 0.8089773461211116 x_1,3,2,5
   + 0.8089773461211116 x_1,3,5,2 - 100 gamma_1,3 - B_1,2 + B_1,3 <= 0
 batteryconsumption1_1,4: 0.4507996391020319 x_1,4,2,4
   + 0.3615143479030934 x_1,4,5,4 + 0.4507996391020319 x_1,4,4,2
   + 0.3615143479030934 x_1,4,4,5 + 0.8089773461211116 x_1,4,2,5
   + 0.8089773461211116 x_1,4,5,2 - 100 gamma_1,4 - B_1,3 + B_1,4 <= 0
 batteryconsumption2_1,0,2,4: 100 x_1,0,2,4 + 0.4548560456580681 y_1,0,1,0
   + 0.4548560456580681 y_1,0,1,1 - 100 gamma_1,0 + B_1,0 <= 101
 batteryconsumption2_1,0,5,4: 100 x_1,0,5,4 + 0.3647673433443861 y_1,0,1,0
   + 0.3647673433443861 y_1,0,1,1 - 100 gamma_1,0 + B_1,0 <= 101
 batteryconsumption2_1,0,4,2: 100 x_1,0,4,2 + 0.4548560456580681 y_1,0,1,0
   + 0.4548560456580681 y_1,0,1,1 - 100 gamma_1,0 + B_1,0 <= 101
 batteryconsumption2_1,0,4,5: 100 x_1,0,4,5 + 0.3647673433443861 y_1,0,1,0
   + 0.3647673433443861 y_1,0,1,1 - 100 gamma_1,0 + B_1,0 <= 101
 batteryconsumption2_1,0,2,5: 100 x_1,0,2,5 + 0.8162567241992023 y_1,0,1,0
   + 0.8162567241992023 y_1,0,1,1 - 100 gamma_1,0 + B_1,0 <= 101
 batteryconsumption2_1,0,5,2: 100 x_1,0,5,2 + 0.8162567241992023 y_1,0,1,0
   + 0.8162567241992023 y_1,0,1,1 - 100 gamma_1,0 + B_1,0 <= 101
 batteryconsumption2_1,1,2,4: 100 x_1,1,2,4 + 0.4548560456580681 y_1,1,1,0
   + 0.4548560456580681 y_1,1,1,1 - 100 gamma_1,1 - B_1,0 + B_1,1 <= 100
 batteryconsumption2_1,1,5,4: 100 x_1,1,5,4 + 0.3647673433443861 y_1,1,1,0
   + 0.3647673433443861 y_1,1,1,1 - 100 gamma_1,1 - B_1,0 + B_1,1 <= 100
 batteryconsumption2_1,1,4,2: 100 x_1,1,4,2 + 0.4548560456580681 y_1,1,1,0
   + 0.4548560456580681 y_1,1,1,1 - 100 gamma_1,1 - B_1,0 + B_1,1 <= 100
 batteryconsumption2_1,1,4,5: 100 x_1,1,4,5 + 0.3647673433443861 y_1,1,1,0
   + 0.3647673433443861 y_1,1,1,1 - 100 gamma_1,1 - B_1,0 + B_1,1 <= 100
 batteryconsumption2_1,1,2,5: 100 x_1,1,2,5 + 0.8162567241992023 y_1,1,1,0
   + 0.8162567241992023 y_1,1,1,1 - 100 gamma_1,1 - B_1,0 + B_1,1 <= 100
 batteryconsumption2_1,1,5,2: 100 x_1,1,5,2 + 0.8162567241992023 y_1,1,1,0
   + 0.8162567241992023 y_1,1,1,1 - 100 gamma_1,1 - B_1,0 + B_1,1 <= 100
 batteryconsumption2_1,2,2,4: 100 x_1,2,2,4 + 0.4548560456580681 y_1,2,1,0
   + 0.4548560456580681 y_1,2,1,1 - 100 gamma_1,2 - B_1,1 + B_1,2 <= 100
 batteryconsumption2_1,2,5,4: 100 x_1,2,5,4 + 0.3647673433443861 y_1,2,1,0
   + 0.3647673433443861 y_1,2,1,1 - 100 gamma_1,2 - B_1,1 + B_1,2 <= 100
 batteryconsumption2_1,2,4,2: 100 x_1,2,4,2 + 0.4548560456580681 y_1,2,1,0
   + 0.4548560456580681 y_1,2,1,1 - 100 gamma_1,2 - B_1,1 + B_1,2 <= 100
 batteryconsumption2_1,2,4,5: 100 x_1,2,4,5 + 0.3647673433443861 y_1,2,1,0
   + 0.3647673433443861 y_1,2,1,1 - 100 gamma_1,2 - B_1,1 + B_1,2 <= 100
 batteryconsumption2_1,2,2,5: 100 x_1,2,2,5 + 0.8162567241992023 y_1,2,1,0
   + 0.8162567241992023 y_1,2,1,1 - 100 gamma_1,2 - B_1,1 + B_1,2 <= 100
 batteryconsumption2_1,2,5,2: 100 x_1,2,5,2 + 0.8162567241992023 y_1,2,1,0
   + 0.8162567241992023 y_1,2,1,1 - 100 gamma_1,2 - B_1,1 + B_1,2 <= 100
 batteryconsumption2_1,3,2,4: 100 x_1,3,2,4 + 0.4548560456580681 y_1,3,1,0
   + 0.4548560456580681 y_1,3,1,1 - 100 gamma_1,3 - B_1,2 + B_1,3 <= 100
 batteryconsumption2_1,3,5,4: 100 x_1,3,5,4 + 0.3647673433443861 y_1,3,1,0
   + 0.3647673433443861 y_1,3,1,1 - 100 gamma_1,3 - B_1,2 + B_1,3 <= 100
 batteryconsumption2_1,3,4,2: 100 x_1,3,4,2 + 0.4548560456580681 y_1,3,1,0
   + 0.4548560456580681 y_1,3,1,1 - 100 gamma_1,3 - B_1,2 + B_1,3 <= 100
 batteryconsumption2_1,3,4,5: 100 x_1,3,4,5 + 0.3647673433443861 y_1,3,1,0
   + 0.3647673433443861 y_1,3,1,1 - 100 gamma_1,3 - B_1,2 + B_1,3 <= 100
 batteryconsumption2_1,3,2,5: 100 x_1,3,2,5 + 0.8162567241992023 y_1,3,1,0
   + 0.8162567241992023 y_1,3,1,1 - 100 gamma_1,3 - B_1,2 + B_1,3 <= 100
 batteryconsumption2_1,3,5,2: 100 x_1,3,5,2 + 0.8162567241992023 y_1,3,1,0
   + 0.8162567241992023 y_1,3,1,1 - 100 gamma_1,3 - B_1,2 + B_1,3 <= 100
 batteryconsumption2_1,4,2,4: 100 x_1,4,2,4 + 0.4548560456580681 y_1,4,1,0
   + 0.4548560456580681 y_1,4,1,1 - 100 gamma_1,4 - B_1,3 + B_1,4 <= 100
 batteryconsumption2_1,4,5,4: 100 x_1,4,5,4 + 0.3647673433443861 y_1,4,1,0
   + 0.3647673433443861 y_1,4,1,1 - 100 gamma_1,4 - B_1,3 + B_1,4 <= 100
 batteryconsumption2_1,4,4,2: 100 x_1,4,4,2 + 0.4548560456580681 y_1,4,1,0
   + 0.4548560456580681 y_1,4,1,1 - 100 gamma_1,4 - B_1,3 + B_1,4 <= 100
 batteryconsumption2_1,4,4,5: 100 x_1,4,4,5 + 0.3647673433443861 y_1,4,1,0
   + 0.3647673433443861 y_1,4,1,1 - 100 gamma_1,4 - B_1,3 + B_1,4 <= 100
 batteryconsumption2_1,4,2,5: 100 x_1,4,2,5 + 0.8162567241992023 y_1,4,1,0
   + 0.8162567241992023 y_1,4,1,1 - 100 gamma_1,4 - B_1,3 + B_1,4 <= 100
 batteryconsumption2_1,4,5,2: 100 x_1,4,5,2 + 0.8162567241992023 y_1,4,1,0
   + 0.8162567241992023 y_1,4,1,1 - 100 gamma_1,4 - B_1,3 + B_1,4 <= 100
 time1_1,0: - C_1,0 + C >= 0
 time1_1,1: - C_1,1 + C >= 0
 time1_1,2: - C_1,2 + C >= 0
 time1_1,3: - C_1,3 + C >= 0
 time1_1,4: - C_1,4 + C >= 0
 time3_1,0: - 536.6662370262284 x_1,0,2,4 - 430.3742236941588 x_1,0,5,4
   - 536.6662370262284 x_1,0,4,2 - 430.3742236941588 x_1,0,4,5
   - 963.0682691917995 x_1,0,2,5 - 963.0682691917995 x_1,0,5,2 + C_1,0
   >= 0
 time3_1,1: - 536.6662370262284 x_1,1,2,4 - 430.3742236941588 x_1,1,5,4
   - 536.6662370262284 x_1,1,4,2 - 430.3742236941588 x_1,1,4,5
   - 963.0682691917995 x_1,1,2,5 - 963.0682691917995 x_1,1,5,2 - C_1,0
   + C_1,1 >= 0
 time3_1,2: - 536.6662370262284 x_1,2,2,4 - 430.3742236941588 x_1,2,5,4
   - 536.6662370262284 x_1,2,4,2 - 430.3742236941588 x_1,2,4,5
   - 963.0682691917995 x_1,2,2,5 - 963.0682691917995 x_1,2,5,2 - C_1,1
   + C_1,2 >= 0
 time3_1,3: - 536.6662370262284 x_1,3,2,4 - 430.3742236941588 x_1,3,5,4
   - 536.6662370262284 x_1,3,4,2 - 430.3742236941588 x_1,3,4,5
   - 963.0682691917995 x_1,3,2,5 - 963.0682691917995 x_1,3,5,2 - C_1,2
   + C_1,3 >= 0
 time3_1,4: - 536.6662370262284 x_1,4,2,4 - 430.3742236941588 x_1,4,5,4
   - 536.6662370262284 x_1,4,4,2 - 430.3742236941588 x_1,4,4,5
   - 963.0682691917995 x_1,4,2,5 - 963.0682691917995 x_1,4,5,2 - C_1,3
   + C_1,4 >= 0
 time4_1,0: - 60 gamma_1,0 + C_1,0 >= 0
 time4_1,1: - 60 gamma_1,1 - C_1,0 + C_1,1 >= 0
 time4_1,2: - 60 gamma_1,2 - C_1,1 + C_1,2 >= 0
 time4_1,3: - 60 gamma_1,3 - C_1,2 + C_1,3 >= 0
 time4_1,4: - 60 gamma_1,4 - C_1,3 + C_1,4 >= 0
 time6a_1,0,1,0: - 28800 y_1,0,1,0 - C_1,0 + CD_1,0 >= -28800
 time6b_1,0,1,0: - 28800 y_1,0,1,0 + C_1,0 - CD_1,0 >= -28800
 time6a_1,1,1,0: - 28800 y_1,1,1,0 - C_1,1 + CD_1,0 >= -28800
 time6b_1,1,1,0: - 28800 y_1,1,1,0 + C_1,1 - CD_1,0 >= -28800
 time6a_1,2,1,0: - 28800 y_1,2,1,0 - C_1,2 + CD_1,0 >= -28800
 time6b_1,2,1,0: - 28800 y_1,2,1,0 + C_1,2 - CD_1,0 >= -28800
 time6a_1,3,1,0: - 28800 y_1,3,1,0 - C_1,3 + CD_1,0 >= -28800
 time6b_1,3,1,0: - 28800 y_1,3,1,0 + C_1,3 - CD_1,0 >= -28800
 time6a_1,4,1,0: - 28800 y_1,4,1,0 - C_1,4 + CD_1,0 >= -28800
 time6b_1,4,1,0: - 28800 y_1,4,1,0 + C_1,4 - CD_1,0 >= -28800
 time6a_1,0,1,1: - 28800 y_1,0,1,1 - C_1,0 + CD_1,1 >= -28800
 time6b_1,0,1,1: - 28800 y_1,0,1,1 + C_1,0 - CD_1,1 >= -28800
 time6a_1,1,1,1: - 28800 y_1,1,1,1 - C_1,1 + CD_1,1 >= -28800
 time6b_1,1,1,1: - 28800 y_1,1,1,1 + C_1,1 - CD_1,1 >= -28800
 time6a_1,2,1,1: - 28800 y_1,2,1,1 - C_1,2 + CD_1,1 >= -28800
 time6b_1,2,1,1: - 28800 y_1,2,1,1 + C_1,2 - CD_1,1 >= -28800
 time6a_1,3,1,1: - 28800 y_1,3,1,1 - C_1,3 + CD_1,1 >= -28800
 time6b_1,3,1,1: - 28800 y_1,3,1,1 + C_1,3 - CD_1,1 >= -28800
 time6a_1,4,1,1: - 28800 y_1,4,1,1 - C_1,4 + CD_1,1 >= -28800
 time6b_1,4,1,1: - 28800 y_1,4,1,1 + C_1,4 - CD_1,1 >= -28800
 time7_1,0,1,1: - 32660.21745982438 y_1,0,1,1 - CD_1,0 + CD_1,1 >= -28800
 time7_1,1,1,1: - 32660.21745982438 y_1,1,1,1 - CD_1,0 + CD_1,1 >= -28800
 time7_1,2,1,1: - 32660.21745982438 y_1,2,1,1 - CD_1,0 + CD_1,1 >= -28800
 time7_1,3,1,1: - 32660.21745982438 y_1,3,1,1 - CD_1,0 + CD_1,1 >= -28800
 time7_1,4,1,1: - 32660.21745982438 y_1,4,1,1 - CD_1,0 + CD_1,1 >= -28800
Bounds
 B_1,0 <= 1
 B_1,1 <= 1
 B_1,2 <= 1
 B_1,3 <= 1
 B_1,4 <= 1
Binaries
 x_1,0,2,4 x_1,0,5,4 x_1,0,4,2 x_1,0,4,5 x_1,0,2,5 x_1,0,5,2 x_1,1,2,4
 x_1,1,5,4 x_1,1,4,2 x_1,1,4,5 x_1,1,2,5 x_1,1,5,2 x_1,2,2,4 x_1,2,5,4
 x_1,2,4,2 x_1,2,4,5 x_1,2,2,5 x_1,2,5,2 x_1,3,2,4 x_1,3,5,4 x_1,3,4,2
 x_1,3,4,5 x_1,3,2,5 x_1,3,5,2 x_1,4,2,4 x_1,4,5,4 x_1,4,4,2 x_1,4,4,5
 x_1,4,2,5 x_1,4,5,2 delta_1,0 delta_1,1 delta_1,2 delta_1,3 delta_1,4
 f_1,0,2,4 f_1,0,5,4 f_1,0,4,2 f_1,0,4,5 f_1,0,2,5 f_1,0,5,2 f_1,1,2,4
 f_1,1,5,4 f_1,1,4,2 f_1,1,4,5 f_1,1,2,5 f_1,1,5,2 y_1,0,1,0 y_1,1,1,0
 y_1,2,1,0 y_1,3,1,0 y_1,4,1,0 y_1,0,1,1 y_1,1,1,1 y_1,2,1,1 y_1,3,1,1
 y_1,4,1,1 gamma_1,0 gamma_1,1 gamma_1,2 gamma_1,3 gamma_1,4
End
